NAME : POMORSKIE-n10
COMMENT : Auto generated by mgrVRP
TYPE : CVRP
DIMENSION : 10
EDGE_WEIGHT_TYPE : EUC_2D
CAPACITY : 200.0
NODE_COORD_SECTION
1 54.03126006608719 17.922209888727348
2 53.942416246381796 18.729286975873546
3 54.38982991361633 17.15455213421987
4 54.25923971053534 18.307856066490825
5 54.18898716277028 19.128409536420826
6 54.49063539734428 18.017933828026393
7 54.58142170733177 17.130726228588333
8 54.255384420818054 18.213105912945245
9 53.84945485521553 18.47662981632175
10 54.41846916131389 18.000117692029697
11 53.670251390002655 17.149360550335313
DEMAND_SECTION
1 0
2 56.0
3 39.0
4 57.0
5 52.0
6 37.0
7 51.0
8 36.0
9 49.0
10 51.0
11 55.0
DEPOT_SECTION
1
-1
EOF
